language ESSENCE' 1.0
$ minion Nodes: 5
$ minion TotalTime: 0.000794
$ Savile Row TotalTime: 0.165
letting aux__5 be 13
letting x_SetOccurrence be [false, false, true, false, false, false, false, false, false, false, false, false, false, true;int(0..13)]
